HUN,8,6,804
0,30,4,27,2,15,3,18,1,12,5,11
5,6,2,17,1,26,3,9,4,14,0,28
0,5,3,24,2,17,4,23,1,19,5,5
3,26,5,13,1,25,0,29,4,28,2,5
3,27,4,28,0,6,5,4,2,12,1,4
4,11,1,9,5,29,0,13,3,6,2,6
2,6,4,16,1,27,5,30,0,24,3,20
4,26,2,3,1,28,0,17,3,30,5,25
